15,7	0,0	17,9	5,9	0,0	0,0	0,0	0,0	0,0	19,8
14,1	9,6	0,0	9,3	15,5	0,0	0,0	8,7	0,0	0,0
0,0	0,0	19,2	0,0	7,1	10,6	0,0	0,0	10,3	0,0
18,9	0,0	15,8	0,0	0,0	0,0	6,7	0,0	0,0	0,0
0,0	5,9	0,0	9,7	13,4	0,0	0,0	15,0	0,0	0,0
0,0	17,2	17,2	0,0	14,8	17,3	0,0	0,0	8,8	0,0
0,0	9,4	0,0	7,6	0,0	0,0	6,8	0,0	0,0	7,8
8,5	0,0	9,2	0,0	0,0	0,0	0,0	0,0	0,0	5,6
0,0	17,7	0,0	10,4	13,7	0,0	0,0	10,6	0,0	0,0
0,0	0,0	6,8	0,0	0,0	10,3	5,6	0,0	0,0	9,5
									
4,3	3,3	2,9	4,1	3,0	3,5	4,0	2,9	3,1	4,1
